\ENCODING=ISO-8859-1
\Problem name: 

Maximize
 obj: - a0 + a1 + a2 + 0.5 a3 + a4 + a5 + a6 + a7 + 0.5 a9 + 0.5 a10 + a13
      + a15 + 0.5 a16 + a18 + 0.75 a19 + a20 + a21 + a23 + a24 + 0.25 a25
      + 0.25 a26 + 0.5 a28 + 0.5 a29 + 0.75 a31 + 0.75 a32 + a33 + 0.5 a34
      + a35 + 0.5 a36 + 0.25 a37 + 0.25 a38 + a39 + a40 + 0.5 a41 + 0.5 a42
      + a43 + 0.75 a44 + a45 + 0.5 a48 + a57 + 0.5 a59 + 0.5 a61 + a63 + a65
      + a69 + 0.5 a73 + 0.5 a74 + 0.5 a75 + 0.25 a79 + 0.5 a84 + 0.5 a85
      + 0.75 a90 + 0.75 a92 + a95 + 0.5 a96 + 0.5 a99 + 0.5 a100 + 0.5 a101
      + 0.25 a102 + 0.25 a105 + 0.5 a109 + 0.5 a113 + 0.75 a115 + 0.75 a117
      + 0.5 a122 + 0.5 a124 + 0.25 a128
Subject To
 c1:   - a0 - f0 + u1 - u2 + u3 - u4 + u5 - u6 + u7 - u8 + u9 - u10 + u11 - u12
       + u13 - u14 + u15 - u16 + u17 - u18 + u19 - u20 + u21 - u22 + u23 - u24
       + u25 - u26 + u27 - u28 + u29 - u30 + u31 - u32 + u33 - u34 + u35 - u36
       + u37 - u38 + u39 - u40 + u41 - u42 + u43 - u44 + u45 - u46 + u47 - u48
       + u49 - u50 + u51 - u52 + u53 - u54 + u55 - u56 + u57 - u58 + u59 - u60
       + u61 - u62 + u63 - u64 + u65 - u66 + u67 - u68 + u69 - u70 + u71 - u72
       + u73 - u74 + u75 - u76 + u77 - u78 + u79 - u80 + u81 - u82 + u83 - u84
       + u85 - u86 + u87 - u88 + u89 - u90 + u91 - u92 + u93 - u94 + u95 - u96
       + u97 - u98 + u99 - u100 + u101 - u102 + u103 - u104 + u105 - u106
       + u107 - u108 + u109 - u110 + u111 - u112 + u113 - u114 + u115 - u116
       + u117 - u118 + u119 - u120 + 2 u121 - 2 u122 + 2 u123 - 2 u124 + 2 u125
       - 2 u126 + 2 u127 - 2 u128 + 2 u129 - 2 u130 + 2 u131 - 2 u132 + 2 u133
       - 2 u134 + 2 u135 - 2 u136 + 2 u137 - 2 u138 + 2 u139 - 2 u140 + 2 u141
       - 2 u142 + 2 u143 - 2 u144 + 2 u145 - 2 u146 + 2 u147 - 2 u148 + 2 u149
       - 2 u150 + 2 u151 - 2 u152 + 2 u153 - 2 u154 + 2 u155 - 2 u156 + 2 u157
       - 2 u158 + 2 u159 - 2 u160 + 2 u161 - 2 u162 + 2 u163 - 2 u164 + 2 u165
       - 2 u166 + 2 u167 - 2 u168 + 2 u169 - 2 u170 + 2 u171 - 2 u172 + 2 u173
       - 2 u174 + 2 u175 - 2 u176 - 16 u177 - 13 u178 - 9 u179  = 0
 c2:   - a1 - f1 + u121 - u122 + u123 - u124  = 0
 c3:   - a2 - f2 + u1 - u2 + u123 - u124 + u125 - u126  = 0
 c4:   - a3 - f3 + u3 - u4 + u125 - u126 + u127 - u128  = 0
 c5:   - a4 - f4 + u5 - u6 + u127 - u128 + u129 - u130  = 0
 c6:   - a5 - f5 + u7 - u8 + u129 - u130 + u131 - u132  = 0
 c7:   - a6 - f6 + u9 - u10 + u131 - u132 + u133 - u134  = 0
 c8:   - a7 - f7 + u121 - u122 + u135 - u136  = 0
 c9:   - a9 - f9 + u13 - u14 + u125 - u126 + u139 - u140  = 0
 c10:  - a10 - f10 + u15 - u16 + u127 - u128 + u141 - u142  = 0
 c11:  - a13 - f13 + u21 - u22 + u133 - u134 + u147 - u148  = 0
 c12:  - a15 - f15 + u25 - u26 + u137 - u138 + u139 - u140  = 0
 c13:  - a16 - f16 + u27 - u28 + u139 - u140 + u141 - u142  = 0
 c14:  - a18 - f18 + u31 - u32 + u143 - u144 + u145 - u146  = 0
 c15:  - a19 - f19 + u33 - u34 + u145 - u146 + u147 - u148  = 0
 c16:  - a20 - f20 + u35 - u36 + u135 - u136 + u149 - u150  = 0
 c17:  - a21 - f21 + u37 - u38 + u137 - u138 + u151 - u152  = 0
 c18:  - a23 - f23 + u41 - u42 + u141 - u142 + u155 - u156  = 0
 c19:  - a24 - f24 + u43 - u44 + u143 - u144 + u157 - u158  = 0
 c20:  - a25 - f25 + u45 - u46 + u145 - u146 + u159 - u160  = 0
 c21:  - a26 - f26 + u47 - u48 + u147 - u148 + u161 - u162  = 0
 c22:  - a28 - f28 + u51 - u52 + u151 - u152 + u153 - u154  = 0
 c23:  - a29 - f29 + u53 - u54 + u153 - u154 + u155 - u156  = 0
 c24:  - a31 - f31 + u57 - u58 + u157 - u158 + u159 - u160  = 0
 c25:  - a32 - f32 + u59 - u60 + u159 - u160 + u161 - u162  = 0
 c26:  - a33 - f33 + u61 - u62 + u149 - u150 + u163 - u164  = 0
 c27:  - a34 - f34 + u63 - u64 + u151 - u152 + u165 - u166  = 0
 c28:  - a35 - f35 + u65 - u66 + u153 - u154 + u167 - u168  = 0
 c29:  - a36 - f36 + u67 - u68 + u155 - u156 + u169 - u170  = 0
 c30:  - a37 - f37 + u69 - u70 + u157 - u158 + u171 - u172  = 0
 c31:  - a38 - f38 + u71 - u72 + u159 - u160 + u173 - u174  = 0
 c32:  - a39 - f39 + u73 - u74 + u161 - u162 + u175 - u176  = 0
 c33:  - a40 - f40 + u75 - u76 + u163 - u164 + u165 - u166  = 0
 c34:  - a41 - f41 + u77 - u78 + u165 - u166 + u167 - u168  = 0
 c35:  - a42 - f42 + u79 - u80 + u167 - u168 + u169 - u170  = 0
 c36:  - a43 - f43 + u81 - u82 + u169 - u170 + u171 - u172  = 0
 c37:  - a44 - f44 + u83 - u84 + u171 - u172 + u173 - u174  = 0
 c38:  - a45 - f45 + u85 - u86 + u173 - u174 + u175 - u176  = 0
 c39:  - a48 - f48 + u3 - u4 + u89 - u90 - u177 - u178 - u179  = 0
 c40:  - a57 - f57 + u11 - u12 + u87 - u88 - u177 - u178  = 0
 c41:  - a59 - f59 + u13 - u14 + u89 - u90 - u178 - 2 u179  = 0
 c42:  - a61 - f61 + u15 - u16 + u91 - u92 - u177  = 0
 c43:  - a63 - f63 + u17 - u18 + u93 - u94 - u177 - u178 - u179  = 0
 c44:  - a65 - f65 + u19 - u20 + u95 - u96 - u177  = 0
 c45:  - a69 - f69 + u23 - u24 + u97 - u98 - u177 - 6 u178  = 0
 c46:  - a73 - f73 + u27 - u28 + u101 - u102  = 0
 c47:  - a74 - f74 + u29 - u30 + u91 - u92 - u177 - u178 - 2 u179  = 0
 c48:  - a75 - f75 + u29 - u30 + u103 - u104 - u177 - u178 - u179  = 0
 c49:  - a79 - f79 + u33 - u34 + u107 - u108 - u177 - 2 u179  = 0
 c50:  - a84 - f84 + u39 - u40 + u99 - u100 - u177  = 0
 c51:  - a85 - f85 + u39 - u40 + u101 - u102 - u177  = 0
 c52:  - a90 - f90 + u45 - u46 + u105 - u106 - u178  = 0
 c53:  - a92 - f92 + u47 - u48 + u107 - u108 - u177  = 0
 c54:  - a95 - f95 + u49 - u50 + u109 - u110 - u177 - u179  = 0
 c55:  - a96 - f96 + u51 - u52 + u99 - u100 - 3 u177 - u178  = 0
 c56:  - a99 - f99 + u53 - u54 + u113 - u114 - u177 - u178  = 0
 c57:  - a100 - f100 + u55 - u56 + u103 - u104 - u177 - u179  = 0
 c58:  - a101 - f101 + u55 - u56 + u115 - u116 - 2 u177 - u178  = 0
 c59:  - a102 - f102 + u57 - u58 + u105 - u106 - u177 - u178 - u179  = 0
 c60:  - a105 - f105 + u59 - u60 + u119 - u120 - u177  = 0
 c61:  - a109 - f109 + u63 - u64 + u111 - u112 - u177 - u178  = 0
 c62:  - a113 - f113 + u67 - u68 + u115 - u116 - 2 u177 - u178  = 0
 c63:  - a115 - f115 + u69 - u70 + u117 - u118 - u177 - u179  = 0
 c64:  - a117 - f117 + u71 - u72 + u119 - u120 - u177 - u179  = 0
 c65:  - a122 - f122 + u77 - u78 + u111 - u112 - u179  = 0
 c66:  - a124 - f124 + u79 - u80 + u113 - u114 - u177 - u179  = 0
 c67:  - a128 - f128 + u83 - u84 + u117 - u118 - u177 - u179  = 0
 c68:  u121 - u122 + u123 - u124  = 0
 c69:  u1 - u2 + u123 - u124 + u125 - u126  = 0
 c70:  u3 - u4 + u125 - u126 + u127 - u128  = 0
 c71:  u5 - u6 + u127 - u128 + u129 - u130  = 0
 c72:  u7 - u8 + u129 - u130 + u131 - u132  = 0
 c73:  u9 - u10 + u131 - u132 + u133 - u134  = 0
 c74:  u121 - u122 + u135 - u136  = 0
 c75:  u11 - u12 + u123 - u124 + u137 - u138  = 0
 c76:  u13 - u14 + u125 - u126 + u139 - u140  = 0
 c77:  u15 - u16 + u127 - u128 + u141 - u142  = 0
 c78:  u17 - u18 + u129 - u130 + u143 - u144  = 0
 c79:  u19 - u20 + u131 - u132 + u145 - u146  = 0
 c80:  u21 - u22 + u133 - u134 + u147 - u148  = 0
 c81:  u23 - u24 + u135 - u136 + u137 - u138  = 0
 c82:  u25 - u26 + u137 - u138 + u139 - u140  = 0
 c83:  u27 - u28 + u139 - u140 + u141 - u142  = 0
 c84:  u29 - u30 + u141 - u142 + u143 - u144  = 0
 c85:  u31 - u32 + u143 - u144 + u145 - u146  = 0
 c86:  u33 - u34 + u145 - u146 + u147 - u148  = 0
 c87:  u35 - u36 + u135 - u136 + u149 - u150  = 0
 c88:  u37 - u38 + u137 - u138 + u151 - u152  = 0
 c89:  u39 - u40 + u139 - u140 + u153 - u154  = 0
 c90:  u41 - u42 + u141 - u142 + u155 - u156  = 0
 c91:  u43 - u44 + u143 - u144 + u157 - u158  = 0
 c92:  u45 - u46 + u145 - u146 + u159 - u160  = 0
 c93:  u47 - u48 + u147 - u148 + u161 - u162  = 0
 c94:  u49 - u50 + u149 - u150 + u151 - u152  = 0
 c95:  u51 - u52 + u151 - u152 + u153 - u154  = 0
 c96:  u53 - u54 + u153 - u154 + u155 - u156  = 0
 c97:  u55 - u56 + u155 - u156 + u157 - u158  = 0
 c98:  u57 - u58 + u157 - u158 + u159 - u160  = 0
 c99:  u59 - u60 + u159 - u160 + u161 - u162  = 0
 c100: u61 - u62 + u149 - u150 + u163 - u164  = 0
 c101: u63 - u64 + u151 - u152 + u165 - u166  = 0
 c102: u65 - u66 + u153 - u154 + u167 - u168  = 0
 c103: u67 - u68 + u155 - u156 + u169 - u170  = 0
 c104: u69 - u70 + u157 - u158 + u171 - u172  = 0
 c105: u71 - u72 + u159 - u160 + u173 - u174  = 0
 c106: u73 - u74 + u161 - u162 + u175 - u176  = 0
 c107: u75 - u76 + u163 - u164 + u165 - u166  = 0
 c108: u77 - u78 + u165 - u166 + u167 - u168  = 0
 c109: u79 - u80 + u167 - u168 + u169 - u170  = 0
 c110: u81 - u82 + u169 - u170 + u171 - u172  = 0
 c111: u83 - u84 + u171 - u172 + u173 - u174  = 0
 c112: u85 - u86 + u173 - u174 + u175 - u176  = 0
 c113: u1 - u2 + u87 - u88 - u177 - u178 <= 0
 c114: u1 - u2 - 2 u178 <= 0
 c115: u3 - u4 + u89 - u90 - u177 - u178 - u179 <= 0
 c116: u3 - u4 - u178 <= 0
 c117: u5 - u6 + u91 - u92 - u177 <= 0
 c118: u5 - u6 - u178 <= 0
 c119: u7 - u8 + u93 - u94 - u178 <= 0
 c120: u7 - u8 - 2 u178 - 2 u179 <= 0
 c121: u9 - u10 + u95 - u96 - u177 <= 0
 c122: u9 - u10 - u178 - 2 u179 <= 0
 c123: u11 - u12 - 2 u178 <= 0
 c124: u11 - u12 + u87 - u88 - u177 - u178 <= 0
 c125: u13 - u14 + u87 - u88 - u179 <= 0
 c126: u13 - u14 + u89 - u90 - u178 - 2 u179 <= 0
 c127: u15 - u16 + u89 - u90 - u177 - u178 - u179 <= 0
 c128: u15 - u16 + u91 - u92 - u177 <= 0
 c129: u17 - u18 + u91 - u92 - u177 - u178 - 2 u179 <= 0
 c130: u17 - u18 + u93 - u94 - u177 - u178 - u179 <= 0
 c131: u19 - u20 + u93 - u94 - u178 - u179 <= 0
 c132: u19 - u20 + u95 - u96 - u177 <= 0
 c133: u21 - u22 + u95 - u96 - u177 <= 0
 c134: u21 - u22 - u178 - 2 u179 <= 0
 c135: u23 - u24 - 2 u178 <= 0
 c136: u23 - u24 + u97 - u98 - u177 - 6 u178 <= 0
 c137: u25 - u26 + u87 - u88 - u179 <= 0
 c138: u25 - u26 + u99 - u100 <= 0
 c139: u27 - u28 + u89 - u90 - u178 - 2 u179 <= 0
 c140: u27 - u28 + u101 - u102 <= 0
 c141: u29 - u30 + u91 - u92 - u177 - u178 - 2 u179 <= 0
 c142: u29 - u30 + u103 - u104 - u177 - u178 - u179 <= 0
 c143: u31 - u32 + u93 - u94 - u177 - u179 <= 0
 c144: u31 - u32 + u105 - u106 - u179 <= 0
 c145: u33 - u34 + u95 - u96 - u177 <= 0
 c146: u33 - u34 + u107 - u108 - u177 - 2 u179 <= 0
 c147: u35 - u36 + u97 - u98 - u177 - 5 u178 <= 0
 c148: u35 - u36 <= 0
 c149: u37 - u38 + u97 - u98 - 2 u177 - 6 u178 - u179 <= 0
 c150: u37 - u38 + u99 - u100 - 2 u177 - u178 <= 0
 c151: u39 - u40 + u99 - u100 - u177 <= 0
 c152: u39 - u40 + u101 - u102 - u177 <= 0
 c153: u41 - u42 + u101 - u102 - u177 - u178 - u179 <= 0
 c154: u41 - u42 + u103 - u104 - u177 - u178 - u179 <= 0
 c155: u43 - u44 + u103 - u104 - 2 u177 - u178 - 2 u179 <= 0
 c156: u43 - u44 + u105 - u106 - u177 - u179 <= 0
 c157: u45 - u46 + u105 - u106 - u178 <= 0
 c158: u45 - u46 + u107 - u108 - u177 - 2 u179 <= 0
 c159: u47 - u48 + u107 - u108 - u177 <= 0
 c160: u47 - u48 - u178 <= 0
 c161: u49 - u50 + u97 - u98 - 2 u177 - 5 u178 - u179 <= 0
 c162: u49 - u50 + u109 - u110 - u177 - u179 <= 0
 c163: u51 - u52 + u99 - u100 - 3 u177 - u178 <= 0
 c164: u51 - u52 + u111 - u112 - 2 u177 - 2 u178 - u179 <= 0
 c165: u53 - u54 + u101 - u102 - 2 u177 - u178 - u179 <= 0
 c166: u53 - u54 + u113 - u114 - u177 - u178 <= 0
 c167: u55 - u56 + u103 - u104 - u177 - u179 <= 0
 c168: u55 - u56 + u115 - u116 - 2 u177 - u178 <= 0
 c169: u57 - u58 + u105 - u106 - u177 - u178 - u179 <= 0
 c170: u57 - u58 + u117 - u118 - 2 u177 - u178 - u179 <= 0
 c171: u59 - u60 + u107 - u108 - u177 <= 0
 c172: u59 - u60 + u119 - u120 - u177 <= 0
 c173: u61 - u62 + u109 - u110 - u179 <= 0
 c174: u61 - u62 - u179 <= 0
 c175: u63 - u64 + u109 - u110 - u177 - u178 <= 0
 c176: u63 - u64 + u111 - u112 - u177 - u178 <= 0
 c177: u65 - u66 + u111 - u112 - u177 - u178 - 2 u179 <= 0
 c178: u65 - u66 + u113 - u114 - 2 u177 - u178 - u179 <= 0
 c179: u67 - u68 + u113 - u114 - u177 - u178 - u179 <= 0
 c180: u67 - u68 + u115 - u116 - 2 u177 - u178 <= 0
 c181: u69 - u70 + u115 - u116 - 2 u177 <= 0
 c182: u69 - u70 + u117 - u118 - u177 - u179 <= 0
 c183: u71 - u72 + u117 - u118 - 2 u177 - u178 <= 0
 c184: u71 - u72 + u119 - u120 - u177 - u179 <= 0
 c185: u73 - u74 + u119 - u120 <= 0
 c186: u73 - u74 - u178 <= 0
 c187: u75 - u76 + u109 - u110 - u178 <= 0
 c188: u75 - u76 - u178 <= 0
 c189: u77 - u78 + u111 - u112 - u179 <= 0
 c190: u77 - u78 - u179 <= 0
 c191: u79 - u80 + u113 - u114 - u177 - u179 <= 0
 c192: u79 - u80 - u177 - u178 - 3 u179 <= 0
 c193: u81 - u82 + u115 - u116 - 2 u177 - u178 <= 0
 c194: u81 - u82 - u178 - 2 u179 <= 0
 c195: u83 - u84 + u117 - u118 - u177 - u179 <= 0
 c196: u83 - u84 - 2 u179 <= 0
 c197: u85 - u86 + u119 - u120 - u177 - u179 <= 0
 c198: u85 - u86 - u177 - u178 - u179 <= 0
 c199: u177 + u178 + u179  = 0
Bounds
      a0 Free
      a1 Free
      a2 Free
      a3 Free
      a4 Free
      a5 Free
      a6 Free
      a7 Free
      a9 Free
      a10 Free
      a13 Free
      a15 Free
      a16 Free
      a18 Free
      a19 Free
      a20 Free
      a21 Free
      a23 Free
      a24 Free
      a25 Free
      a26 Free
      a28 Free
      a29 Free
      a31 Free
      a32 Free
      a33 Free
      a34 Free
      a35 Free
      a36 Free
      a37 Free
      a38 Free
      a39 Free
      a40 Free
      a41 Free
      a42 Free
      a43 Free
      a44 Free
      a45 Free
      a48 Free
      a57 Free
      a59 Free
      a61 Free
      a63 Free
      a65 Free
      a69 Free
      a73 Free
      a74 Free
      a75 Free
      a79 Free
      a84 Free
      a85 Free
      a90 Free
      a92 Free
      a95 Free
      a96 Free
      a99 Free
      a100 Free
      a101 Free
      a102 Free
      a105 Free
      a109 Free
      a113 Free
      a115 Free
      a117 Free
      a122 Free
      a124 Free
      a128 Free
 0 <= f0 <= 0.99
 0 <= f1 <= 0.99
 0 <= f2 <= 0.99
 0 <= f3 <= 0.99
 0 <= f4 <= 0.99
 0 <= f5 <= 0.99
 0 <= f6 <= 0.99
 0 <= f7 <= 0.99
 0 <= f9 <= 0.99
 0 <= f10 <= 0.99
 0 <= f13 <= 0.99
 0 <= f15 <= 0.99
 0 <= f16 <= 0.99
 0 <= f18 <= 0.99
 0 <= f19 <= 0.99
 0 <= f20 <= 0.99
 0 <= f21 <= 0.99
 0 <= f23 <= 0.99
 0 <= f24 <= 0.99
 0 <= f25 <= 0.99
 0 <= f26 <= 0.99
 0 <= f28 <= 0.99
 0 <= f29 <= 0.99
 0 <= f31 <= 0.99
 0 <= f32 <= 0.99
 0 <= f33 <= 0.99
 0 <= f34 <= 0.99
 0 <= f35 <= 0.99
 0 <= f36 <= 0.99
 0 <= f37 <= 0.99
 0 <= f38 <= 0.99
 0 <= f39 <= 0.99
 0 <= f40 <= 0.99
 0 <= f41 <= 0.99
 0 <= f42 <= 0.99
 0 <= f43 <= 0.99
 0 <= f44 <= 0.99
 0 <= f45 <= 0.99
 0 <= f48 <= 0.99
 0 <= f57 <= 0.99
 0 <= f59 <= 0.99
 0 <= f61 <= 0.99
 0 <= f63 <= 0.99
 0 <= f65 <= 0.99
 0 <= f69 <= 0.99
 0 <= f73 <= 0.99
 0 <= f74 <= 0.99
 0 <= f75 <= 0.99
 0 <= f79 <= 0.99
 0 <= f84 <= 0.99
 0 <= f85 <= 0.99
 0 <= f90 <= 0.99
 0 <= f92 <= 0.99
 0 <= f95 <= 0.99
 0 <= f96 <= 0.99
 0 <= f99 <= 0.99
 0 <= f100 <= 0.99
 0 <= f101 <= 0.99
 0 <= f102 <= 0.99
 0 <= f105 <= 0.99
 0 <= f109 <= 0.99
 0 <= f113 <= 0.99
 0 <= f115 <= 0.99
 0 <= f117 <= 0.99
 0 <= f122 <= 0.99
 0 <= f124 <= 0.99
 0 <= f128 <= 0.99
Generals
 a0  a1  a2  a3  a4  a5  a6  a7  a9  a10  a13  a15  a16  a18  a19  a20  a21 
 a23  a24  a25  a26  a28  a29  a31  a32  a33  a34  a35  a36  a37  a38  a39 
 a40  a41  a42  a43  a44  a45  a48  a57  a59  a61  a63  a65  a69  a73  a74 
 a75  a79  a84  a85  a90  a92  a95  a96  a99  a100  a101  a102  a105  a109 
 a113  a115  a117  a122  a124  a128 
End
